10
1 0 36
2 0 33
2 1 39
3 0 12
3 1 30
3 2 18
4 0 30
4 1 10
4 2 35
4 3 24
5 0 15
5 1 32
5 2 15
5 3 40
5 4 27
6 0 14
6 1 2
6 2 25
6 3 24
6 4 2
6 5 31
7 0 16
7 1 4
7 2 15
7 3 28
7 5 22
7 6 11
8 0 1
8 1 27
8 2 29
8 3 37
8 4 38
8 5 1
9 0 21
9 1 15
9 3 1
9 4 24
9 5 15
9 6 18
9 7 12
9 8 22
